p cnf 400 1
400 0
w 1 0.494074
w 2 1 0.123762
w 2 -1 0.405592
w 3 2 0.323279
w 3 -2 0.748863
w 4 3 0
w 4 -3 1
w 5 4 1
w 5 -4 0
w 6 5 1
w 6 -5 0
w 7 6 0
w 7 -6 1
w 8 7 0.938178
w 8 -7 0.732948
w 9 8 0
w 9 -8 1
w 10 9 0.439449
w 10 -9 0.118852
w 11 10 1
w 11 -10 0
w 12 11 0.651911
w 12 -11 0.505979
w 13 12 1
w 13 -12 0
w 14 13 0.91678
w 14 -13 0.810023
w 15 14 0.322373
w 15 -14 0.639394
w 16 15 0
w 16 -15 1
w 17 16 1
w 17 -16 0
w 18 17 0
w 18 -17 1
w 19 18 0
w 19 -18 1
w 20 19 0.81379
w 20 -19 0.603622
w 21 1 0.546738
w 21 -1 0.155146
w 22 21 2 1
w 22 21 -2 1
w 22 -21 2 0
w 22 -21 -2 0
w 23 22 3 0.452948
w 23 22 -3 0.0335124
w 23 -22 3 0.460169
w 23 -22 -3 0.875654
w 24 23 4 0.253615
w 24 23 -4 0.792435
w 24 -23 4 0.73257
w 24 -23 -4 0.170822
w 25 24 5 1
w 25 24 -5 1
w 25 -24 5 1
w 25 -24 -5 0
w 26 25 6 0.638557
w 26 25 -6 0.172796
w 26 -25 6 0.189995
w 26 -25 -6 0.348081
w 27 26 7 1
w 27 26 -7 1
w 27 -26 7 1
w 27 -26 -7 0
w 28 27 8 1
w 28 27 -8 0
w 28 -27 8 1
w 28 -27 -8 1
w 29 28 9 1
w 29 28 -9 0
w 29 -28 9 0
w 29 -28 -9 1
w 30 29 10 0
w 30 29 -10 0
w 30 -29 10 1
w 30 -29 -10 1
w 31 30 11 0
w 31 30 -11 0
w 31 -30 11 1
w 31 -30 -11 0
w 32 31 12 0.226634
w 32 31 -12 0.243345
w 32 -31 12 0.129991
w 32 -31 -12 0.574715
w 33 32 13 0
w 33 32 -13 1
w 33 -32 13 1
w 33 -32 -13 0
w 34 33 14 0
w 34 33 -14 1
w 34 -33 14 1
w 34 -33 -14 1
w 35 34 15 0.990343
w 35 34 -15 0.867707
w 35 -34 15 0.1795
w 35 -34 -15 0.106146
w 36 35 16 0
w 36 35 -16 1
w 36 -35 16 0
w 36 -35 -16 1
w 37 36 17 0
w 37 36 -17 1
w 37 -36 17 0
w 37 -36 -17 1
w 38 37 18 0.907348
w 38 37 -18 0.866469
w 38 -37 18 0.0419676
w 38 -37 -18 0.0373384
w 39 38 19 0
w 39 38 -19 1
w 39 -38 19 0
w 39 -38 -19 1
w 40 39 20 0.600867
w 40 39 -20 0.0437135
w 40 -39 20 0.439207
w 40 -39 -20 0.935577
w 41 21 1
w 41 -21 0
w 42 41 22 0.159991
w 42 41 -22 0.483597
w 42 -41 22 0.0320663
w 42 -41 -22 0.52249
w 43 42 23 0.507631
w 43 42 -23 0.172215
w 43 -42 23 0.286637
w 43 -42 -23 0.523435
w 44 43 24 0
w 44 43 -24 0
w 44 -43 24 1
w 44 -43 -24 1
w 45 44 25 0
w 45 44 -25 1
w 45 -44 25 0
w 45 -44 -25 0
w 46 45 26 0
w 46 45 -26 0
w 46 -45 26 1
w 46 -45 -26 1
w 47 46 27 0
w 47 46 -27 0
w 47 -46 27 1
w 47 -46 -27 1
w 48 47 28 1
w 48 47 -28 1
w 48 -47 28 1
w 48 -47 -28 0
w 49 48 29 1
w 49 48 -29 0
w 49 -48 29 0
w 49 -48 -29 0
w 50 49 30 0.155348
w 50 49 -30 0.547247
w 50 -49 30 0.70384
w 50 -49 -30 0.553482
w 51 50 31 0
w 51 50 -31 0
w 51 -50 31 0
w 51 -50 -31 1
w 52 51 32 0
w 52 51 -32 1
w 52 -51 32 1
w 52 -51 -32 1
w 53 52 33 1
w 53 52 -33 0
w 53 -52 33 0
w 53 -52 -33 0
w 54 53 34 1
w 54 53 -34 1
w 54 -53 34 1
w 54 -53 -34 0
w 55 54 35 0
w 55 54 -35 0
w 55 -54 35 1
w 55 -54 -35 0
w 56 55 36 0
w 56 55 -36 1
w 56 -55 36 0
w 56 -55 -36 1
w 57 56 37 0
w 57 56 -37 1
w 57 -56 37 1
w 57 -56 -37 1
w 58 57 38 1
w 58 57 -38 0
w 58 -57 38 1
w 58 -57 -38 1
w 59 58 39 0.353725
w 59 58 -39 0.440812
w 59 -58 39 0.973765
w 59 -58 -39 0.51778
w 60 59 40 0
w 60 59 -40 0
w 60 -59 40 1
w 60 -59 -40 0
w 61 41 0.663699
w 61 -41 0.459814
w 62 61 42 1
w 62 61 -42 0
w 62 -61 42 0
w 62 -61 -42 1
w 63 62 43 0
w 63 62 -43 0
w 63 -62 43 1
w 63 -62 -43 0
w 64 63 44 0
w 64 63 -44 1
w 64 -63 44 1
w 64 -63 -44 1
w 65 64 45 0
w 65 64 -45 0
w 65 -64 45 1
w 65 -64 -45 1
w 66 65 46 0
w 66 65 -46 0
w 66 -65 46 1
w 66 -65 -46 0
w 67 66 47 0
w 67 66 -47 0
w 67 -66 47 1
w 67 -66 -47 1
w 68 67 48 1
w 68 67 -48 0
w 68 -67 48 1
w 68 -67 -48 1
w 69 68 49 1
w 69 68 -49 1
w 69 -68 49 1
w 69 -68 -49 0
w 70 69 50 1
w 70 69 -50 0
w 70 -69 50 0
w 70 -69 -50 1
w 71 70 51 1
w 71 70 -51 1
w 71 -70 51 0
w 71 -70 -51 1
w 72 71 52 0
w 72 71 -52 1
w 72 -71 52 0
w 72 -71 -52 1
w 73 72 53 1
w 73 72 -53 1
w 73 -72 53 1
w 73 -72 -53 0
w 74 73 54 0
w 74 73 -54 1
w 74 -73 54 0
w 74 -73 -54 0
w 75 74 55 1
w 75 74 -55 1
w 75 -74 55 1
w 75 -74 -55 0
w 76 75 56 0
w 76 75 -56 0
w 76 -75 56 0
w 76 -75 -56 1
w 77 76 57 0
w 77 76 -57 0
w 77 -76 57 1
w 77 -76 -57 1
w 78 77 58 0.255577
w 78 77 -58 0.933056
w 78 -77 58 0.94641
w 78 -77 -58 0.769935
w 79 78 59 0
w 79 78 -59 1
w 79 -78 59 0
w 79 -78 -59 1
w 80 79 60 1
w 80 79 -60 0
w 80 -79 60 1
w 80 -79 -60 1
w 81 61 0.970194
w 81 -61 0.140509
w 82 81 62 0
w 82 81 -62 0
w 82 -81 62 1
w 82 -81 -62 0
w 83 82 63 0
w 83 82 -63 1
w 83 -82 63 1
w 83 -82 -63 1
w 84 83 64 0.467699
w 84 83 -64 0.000626347
w 84 -83 64 0.193699
w 84 -83 -64 0.400755
w 85 84 65 0.963634
w 85 84 -65 0.666907
w 85 -84 65 0.392439
w 85 -84 -65 0.660924
w 86 85 66 0
w 86 85 -66 1
w 86 -85 66 1
w 86 -85 -66 0
w 87 86 67 0.169547
w 87 86 -67 0.480633
w 87 -86 67 0.822343
w 87 -86 -67 0.310056
w 88 87 68 0.624794
w 88 87 -68 0.902947
w 88 -87 68 0.475046
w 88 -87 -68 0.0135374
w 89 88 69 0
w 89 88 -69 1
w 89 -88 69 1
w 89 -88 -69 0
w 90 89 70 0
w 90 89 -70 0
w 90 -89 70 0
w 90 -89 -70 1
w 91 90 71 0
w 91 90 -71 1
w 91 -90 71 0
w 91 -90 -71 1
w 92 91 72 0
w 92 91 -72 1
w 92 -91 72 1
w 92 -91 -72 1
w 93 92 73 1
w 93 92 -73 1
w 93 -92 73 1
w 93 -92 -73 0
w 94 93 74 1
w 94 93 -74 1
w 94 -93 74 1
w 94 -93 -74 0
w 95 94 75 0.459224
w 95 94 -75 0.00780631
w 95 -94 75 0.385017
w 95 -94 -75 0.930651
w 96 95 76 0
w 96 95 -76 0
w 96 -95 76 1
w 96 -95 -76 0
w 97 96 77 0.245863
w 97 96 -77 0.309108
w 97 -96 77 0.510329
w 97 -96 -77 0.415193
w 98 97 78 0
w 98 97 -78 1
w 98 -97 78 0
w 98 -97 -78 1
w 99 98 79 0
w 99 98 -79 1
w 99 -98 79 0
w 99 -98 -79 1
w 100 99 80 0
w 100 99 -80 1
w 100 -99 80 0
w 100 -99 -80 1
w 101 81 0
w 101 -81 1
w 102 101 82 0
w 102 101 -82 0
w 102 -101 82 1
w 102 -101 -82 1
w 103 102 83 1
w 103 102 -83 1
w 103 -102 83 1
w 103 -102 -83 0
w 104 103 84 0
w 104 103 -84 0
w 104 -103 84 0
w 104 -103 -84 1
w 105 104 85 0
w 105 104 -85 0
w 105 -104 85 1
w 105 -104 -85 0
w 106 105 86 1
w 106 105 -86 0
w 106 -105 86 0
w 106 -105 -86 0
w 107 106 87 0
w 107 106 -87 1
w 107 -106 87 0
w 107 -106 -87 1
w 108 107 88 0.935389
w 108 107 -88 0.710927
w 108 -107 88 0.972832
w 108 -107 -88 0.855183
w 109 108 89 0.394427
w 109 108 -89 0.518418
w 109 -108 89 0.925501
w 109 -108 -89 0.759469
w 110 109 90 0
w 110 109 -90 0
w 110 -109 90 1
w 110 -109 -90 1
w 111 110 91 1
w 111 110 -91 1
w 111 -110 91 0
w 111 -110 -91 0
w 112 111 92 1
w 112 111 -92 0
w 112 -111 92 0
w 112 -111 -92 0
w 113 112 93 1
w 113 112 -93 0
w 113 -112 93 1
w 113 -112 -93 1
w 114 113 94 0.0682488
w 114 113 -94 0.731695
w 114 -113 94 0.530362
w 114 -113 -94 0.041081
w 115 114 95 0
w 115 114 -95 1
w 115 -114 95 0
w 115 -114 -95 0
w 116 115 96 1
w 116 115 -96 1
w 116 -115 96 0
w 116 -115 -96 1
w 117 116 97 0
w 117 116 -97 1
w 117 -116 97 1
w 117 -116 -97 1
w 118 117 98 0
w 118 117 -98 1
w 118 -117 98 1
w 118 -117 -98 0
w 119 118 99 0
w 119 118 -99 1
w 119 -118 99 0
w 119 -118 -99 0
w 120 119 100 0.368875
w 120 119 -100 0.594561
w 120 -119 100 0.490266
w 120 -119 -100 0.409956
w 121 101 1
w 121 -101 0
w 122 121 102 0.286735
w 122 121 -102 0.410074
w 122 -121 102 0.0404415
w 122 -121 -102 0.819548
w 123 122 103 0
w 123 122 -103 0
w 123 -122 103 0
w 123 -122 -103 1
w 124 123 104 0
w 124 123 -104 0
w 124 -123 104 0
w 124 -123 -104 1
w 125 124 105 1
w 125 124 -105 1
w 125 -124 105 1
w 125 -124 -105 0
w 126 125 106 0
w 126 125 -106 0
w 126 -125 106 1
w 126 -125 -106 0
w 127 126 107 0
w 127 126 -107 1
w 127 -126 107 1
w 127 -126 -107 1
w 128 127 108 0.468642
w 128 127 -108 0.0690112
w 128 -127 108 0.194911
w 128 -127 -108 0.509084
w 129 128 109 0.220957
w 129 128 -109 0.379343
w 129 -128 109 0.992729
w 129 -128 -109 0.63192
w 130 129 110 0
w 130 129 -110 1
w 130 -129 110 0
w 130 -129 -110 0
w 131 130 111 0.931477
w 131 130 -111 0.576323
w 131 -130 111 0.831381
w 131 -130 -111 0.138254
w 132 131 112 1
w 132 131 -112 1
w 132 -131 112 0
w 132 -131 -112 0
w 133 132 113 0.177614
w 133 132 -113 0.581909
w 133 -132 113 0.590068
w 133 -132 -113 0.800792
w 134 133 114 0
w 134 133 -114 0
w 134 -133 114 1
w 134 -133 -114 0
w 135 134 115 0.321755
w 135 134 -115 0.790773
w 135 -134 115 0.157861
w 135 -134 -115 0.314484
w 136 135 116 0
w 136 135 -116 0
w 136 -135 116 0
w 136 -135 -116 1
w 137 136 117 0.961522
w 137 136 -117 0.471422
w 137 -136 117 0.613909
w 137 -136 -117 0.0997758
w 138 137 118 1
w 138 137 -118 1
w 138 -137 118 0
w 138 -137 -118 0
w 139 138 119 0
w 139 138 -119 0
w 139 -138 119 1
w 139 -138 -119 0
w 140 139 120 1
w 140 139 -120 0
w 140 -139 120 0
w 140 -139 -120 1
w 141 121 0
w 141 -121 1
w 142 141 122 1
w 142 141 -122 0
w 142 -141 122 1
w 142 -141 -122 1
w 143 142 123 1
w 143 142 -123 1
w 143 -142 123 0
w 143 -142 -123 0
w 144 143 124 0
w 144 143 -124 1
w 144 -143 124 1
w 144 -143 -124 0
w 145 144 125 1
w 145 144 -125 0
w 145 -144 125 0
w 145 -144 -125 0
w 146 145 126 0
w 146 145 -126 1
w 146 -145 126 1
w 146 -145 -126 1
w 147 146 127 0.325701
w 147 146 -127 0.50386
w 147 -146 127 0.49148
w 147 -146 -127 0.596518
w 148 147 128 1
w 148 147 -128 0
w 148 -147 128 0
w 148 -147 -128 0
w 149 148 129 1
w 149 148 -129 1
w 149 -148 129 1
w 149 -148 -129 0
w 150 149 130 0.415402
w 150 149 -130 0.975038
w 150 -149 130 0.247328
w 150 -149 -130 0.697377
w 151 150 131 1
w 151 150 -131 1
w 151 -150 131 0
w 151 -150 -131 1
w 152 151 132 1
w 152 151 -132 1
w 152 -151 132 1
w 152 -151 -132 0
w 153 152 133 0
w 153 152 -133 0
w 153 -152 133 1
w 153 -152 -133 0
w 154 153 134 0.980496
w 154 153 -134 0.844384
w 154 -153 134 0.164899
w 154 -153 -134 0.314029
w 155 154 135 0
w 155 154 -135 1
w 155 -154 135 0
w 155 -154 -135 1
w 156 155 136 0
w 156 155 -136 1
w 156 -155 136 0
w 156 -155 -136 0
w 157 156 137 0
w 157 156 -137 1
w 157 -156 137 1
w 157 -156 -137 0
w 158 157 138 0.150105
w 158 157 -138 0.823229
w 158 -157 138 0.449953
w 158 -157 -138 0.362188
w 159 158 139 0.719241
w 159 158 -139 0.483536
w 159 -158 139 0.270649
w 159 -158 -139 0.492387
w 160 159 140 1
w 160 159 -140 0
w 160 -159 140 1
w 160 -159 -140 0
w 161 141 0.24239
w 161 -141 0.0893332
w 162 161 142 0
w 162 161 -142 1
w 162 -161 142 1
w 162 -161 -142 0
w 163 162 143 0
w 163 162 -143 1
w 163 -162 143 1
w 163 -162 -143 0
w 164 163 144 0
w 164 163 -144 0
w 164 -163 144 1
w 164 -163 -144 1
w 165 164 145 1
w 165 164 -145 1
w 165 -164 145 0
w 165 -164 -145 1
w 166 165 146 0.448555
w 166 165 -146 0.169536
w 166 -165 146 0.940099
w 166 -165 -146 0.702282
w 167 166 147 0
w 167 166 -147 1
w 167 -166 147 0
w 167 -166 -147 0
w 168 167 148 0
w 168 167 -148 0
w 168 -167 148 1
w 168 -167 -148 0
w 169 168 149 0
w 169 168 -149 0
w 169 -168 149 1
w 169 -168 -149 1
w 170 169 150 0
w 170 169 -150 1
w 170 -169 150 0
w 170 -169 -150 1
w 171 170 151 1
w 171 170 -151 1
w 171 -170 151 0
w 171 -170 -151 1
w 172 171 152 0.571271
w 172 171 -152 0.0251825
w 172 -171 152 0.785383
w 172 -171 -152 0.273553
w 173 172 153 1
w 173 172 -153 0
w 173 -172 153 0
w 173 -172 -153 1
w 174 173 154 0
w 174 173 -154 1
w 174 -173 154 1
w 174 -173 -154 0
w 175 174 155 0.29099
w 175 174 -155 0.796554
w 175 -174 155 0.72849
w 175 -174 -155 0.0864188
w 176 175 156 0.441124
w 176 175 -156 0.729755
w 176 -175 156 0.627954
w 176 -175 -156 0.661714
w 177 176 157 1
w 177 176 -157 1
w 177 -176 157 0
w 177 -176 -157 1
w 178 177 158 0
w 178 177 -158 0
w 178 -177 158 1
w 178 -177 -158 1
w 179 178 159 0
w 179 178 -159 0
w 179 -178 159 0
w 179 -178 -159 1
w 180 179 160 1
w 180 179 -160 0
w 180 -179 160 1
w 180 -179 -160 1
w 181 161 0
w 181 -161 1
w 182 181 162 0
w 182 181 -162 0
w 182 -181 162 0
w 182 -181 -162 1
w 183 182 163 0.949697
w 183 182 -163 0.212091
w 183 -182 163 0.317615
w 183 -182 -163 0.522461
w 184 183 164 0
w 184 183 -164 1
w 184 -183 164 1
w 184 -183 -164 0
w 185 184 165 0
w 185 184 -165 1
w 185 -184 165 1
w 185 -184 -165 0
w 186 185 166 1
w 186 185 -166 1
w 186 -185 166 0
w 186 -185 -166 1
w 187 186 167 0.668843
w 187 186 -167 0.338585
w 187 -186 167 0.492148
w 187 -186 -167 0.0496053
w 188 187 168 1
w 188 187 -168 0
w 188 -187 168 0
w 188 -187 -168 0
w 189 188 169 1
w 189 188 -169 1
w 189 -188 169 1
w 189 -188 -169 0
w 190 189 170 0.640073
w 190 189 -170 0.848773
w 190 -189 170 0.721786
w 190 -189 -170 0.548274
w 191 190 171 0
w 191 190 -171 0
w 191 -190 171 0
w 191 -190 -171 1
w 192 191 172 1
w 192 191 -172 0
w 192 -191 172 1
w 192 -191 -172 1
w 193 192 173 1
w 193 192 -173 1
w 193 -192 173 0
w 193 -192 -173 0
w 194 193 174 0.310656
w 194 193 -174 0.823916
w 194 -193 174 0.667482
w 194 -193 -174 0.942849
w 195 194 175 0.588808
w 195 194 -175 0.892657
w 195 -194 175 0.563116
w 195 -194 -175 0.562435
w 196 195 176 0
w 196 195 -176 1
w 196 -195 176 1
w 196 -195 -176 1
w 197 196 177 1
w 197 196 -177 1
w 197 -196 177 1
w 197 -196 -177 0
w 198 197 178 0.662597
w 198 197 -178 0.239521
w 198 -197 178 0.252444
w 198 -197 -178 0.41238
w 199 198 179 1
w 199 198 -179 1
w 199 -198 179 1
w 199 -198 -179 0
w 200 199 180 0
w 200 199 -180 0
w 200 -199 180 0
w 200 -199 -180 1
w 201 181 0
w 201 -181 1
w 202 201 182 1
w 202 201 -182 1
w 202 -201 182 0
w 202 -201 -182 1
w 203 202 183 1
w 203 202 -183 0
w 203 -202 183 1
w 203 -202 -183 1
w 204 203 184 1
w 204 203 -184 0
w 204 -203 184 1
w 204 -203 -184 0
w 205 204 185 0
w 205 204 -185 0
w 205 -204 185 0
w 205 -204 -185 1
w 206 205 186 1
w 206 205 -186 0
w 206 -205 186 0
w 206 -205 -186 1
w 207 206 187 0
w 207 206 -187 0
w 207 -206 187 1
w 207 -206 -187 0
w 208 207 188 1
w 208 207 -188 0
w 208 -207 188 1
w 208 -207 -188 0
w 209 208 189 0.655933
w 209 208 -189 0.104883
w 209 -208 189 0.633338
w 209 -208 -189 0.977175
w 210 209 190 1
w 210 209 -190 0
w 210 -209 190 1
w 210 -209 -190 1
w 211 210 191 1
w 211 210 -191 1
w 211 -210 191 1
w 211 -210 -191 0
w 212 211 192 0
w 212 211 -192 0
w 212 -211 192 1
w 212 -211 -192 0
w 213 212 193 0
w 213 212 -193 0
w 213 -212 193 1
w 213 -212 -193 0
w 214 213 194 0.875924
w 214 213 -194 0.906831
w 214 -213 194 0.405581
w 214 -213 -194 0.751412
w 215 214 195 0.29075
w 215 214 -195 0.407345
w 215 -214 195 0.894036
w 215 -214 -195 0.924088
w 216 215 196 1
w 216 215 -196 0
w 216 -215 196 1
w 216 -215 -196 0
w 217 216 197 0.710163
w 217 216 -197 0.672658
w 217 -216 197 0.458602
w 217 -216 -197 0.133607
w 218 217 198 0
w 218 217 -198 1
w 218 -217 198 1
w 218 -217 -198 1
w 219 218 199 1
w 219 218 -199 1
w 219 -218 199 1
w 219 -218 -199 0
w 220 219 200 1
w 220 219 -200 1
w 220 -219 200 0
w 220 -219 -200 0
w 221 201 0
w 221 -201 1
w 222 221 202 0
w 222 221 -202 1
w 222 -221 202 0
w 222 -221 -202 1
w 223 222 203 0
w 223 222 -203 0
w 223 -222 203 0
w 223 -222 -203 1
w 224 223 204 0.596161
w 224 223 -204 0.51503
w 224 -223 204 0.0970887
w 224 -223 -204 0.820004
w 225 224 205 1
w 225 224 -205 0
w 225 -224 205 1
w 225 -224 -205 0
w 226 225 206 0.871282
w 226 225 -206 0.452583
w 226 -225 206 0.438276
w 226 -225 -206 0.374462
w 227 226 207 0
w 227 226 -207 0
w 227 -226 207 0
w 227 -226 -207 1
w 228 227 208 0.60268
w 228 227 -208 0.684787
w 228 -227 208 0.0768361
w 228 -227 -208 0.905828
w 229 228 209 1
w 229 228 -209 1
w 229 -228 209 0
w 229 -228 -209 1
w 230 229 210 0
w 230 229 -210 1
w 230 -229 210 0
w 230 -229 -210 0
w 231 230 211 0.640326
w 231 230 -211 0.831186
w 231 -230 211 0.834113
w 231 -230 -211 0.510142
w 232 231 212 0
w 232 231 -212 1
w 232 -231 212 0
w 232 -231 -212 0
w 233 232 213 0.982308
w 233 232 -213 0.0248638
w 233 -232 213 0.540359
w 233 -232 -213 0.205929
w 234 233 214 1
w 234 233 -214 0
w 234 -233 214 1
w 234 -233 -214 1
w 235 234 215 0
w 235 234 -215 0
w 235 -234 215 1
w 235 -234 -215 0
w 236 235 216 0
w 236 235 -216 0
w 236 -235 216 1
w 236 -235 -216 0
w 237 236 217 0
w 237 236 -217 1
w 237 -236 217 1
w 237 -236 -217 0
w 238 237 218 0
w 238 237 -218 0
w 238 -237 218 1
w 238 -237 -218 0
w 239 238 219 0
w 239 238 -219 1
w 239 -238 219 1
w 239 -238 -219 0
w 240 239 220 1
w 240 239 -220 1
w 240 -239 220 0
w 240 -239 -220 0
w 241 221 0
w 241 -221 1
w 242 241 222 1
w 242 241 -222 0
w 242 -241 222 1
w 242 -241 -222 1
w 243 242 223 1
w 243 242 -223 0
w 243 -242 223 0
w 243 -242 -223 0
w 244 243 224 0.209882
w 244 243 -224 0.466663
w 244 -243 224 0.116434
w 244 -243 -224 0.818483
w 245 244 225 0.0184292
w 245 244 -225 0.808508
w 245 -244 225 0.301446
w 245 -244 -225 0.0615649
w 246 245 226 0
w 246 245 -226 1
w 246 -245 226 1
w 246 -245 -226 1
w 247 246 227 0
w 247 246 -227 0
w 247 -246 227 0
w 247 -246 -227 1
w 248 247 228 0
w 248 247 -228 0
w 248 -247 228 1
w 248 -247 -228 0
w 249 248 229 1
w 249 248 -229 0
w 249 -248 229 1
w 249 -248 -229 0
w 250 249 230 1
w 250 249 -230 1
w 250 -249 230 1
w 250 -249 -230 0
w 251 250 231 0.706855
w 251 250 -231 0.257608
w 251 -250 231 0.504901
w 251 -250 -231 0.331498
w 252 251 232 0
w 252 251 -232 0
w 252 -251 232 0
w 252 -251 -232 1
w 253 252 233 0.956872
w 253 252 -233 0.058591
w 253 -252 233 0.520462
w 253 -252 -233 0.650986
w 254 253 234 1
w 254 253 -234 1
w 254 -253 234 0
w 254 -253 -234 0
w 255 254 235 0.363371
w 255 254 -235 0.985159
w 255 -254 235 0.7523
w 255 -254 -235 0.424551
w 256 255 236 1
w 256 255 -236 1
w 256 -255 236 0
w 256 -255 -236 0
w 257 256 237 0.401107
w 257 256 -237 0.309417
w 257 -256 237 0.0558169
w 257 -256 -237 0.906008
w 258 257 238 1
w 258 257 -238 0
w 258 -257 238 1
w 258 -257 -238 1
w 259 258 239 0
w 259 258 -239 0
w 259 -258 239 1
w 259 -258 -239 1
w 260 259 240 0.492786
w 260 259 -240 0.904133
w 260 -259 240 0.15413
w 260 -259 -240 0.364335
w 261 241 1
w 261 -241 0
w 262 261 242 0
w 262 261 -242 1
w 262 -261 242 1
w 262 -261 -242 0
w 263 262 243 1
w 263 262 -243 0
w 263 -262 243 1
w 263 -262 -243 1
w 264 263 244 0
w 264 263 -244 0
w 264 -263 244 1
w 264 -263 -244 0
w 265 264 245 1
w 265 264 -245 1
w 265 -264 245 1
w 265 -264 -245 0
w 266 265 246 0
w 266 265 -246 1
w 266 -265 246 1
w 266 -265 -246 0
w 267 266 247 0
w 267 266 -247 1
w 267 -266 247 0
w 267 -266 -247 1
w 268 267 248 0
w 268 267 -248 0
w 268 -267 248 1
w 268 -267 -248 0
w 269 268 249 1
w 269 268 -249 1
w 269 -268 249 0
w 269 -268 -249 0
w 270 269 250 0
w 270 269 -250 1
w 270 -269 250 1
w 270 -269 -250 0
w 271 270 251 0
w 271 270 -251 0
w 271 -270 251 0
w 271 -270 -251 1
w 272 271 252 0.737901
w 272 271 -252 0.146282
w 272 -271 252 0.741118
w 272 -271 -252 0.894885
w 273 272 253 0
w 273 272 -253 1
w 273 -272 253 0
w 273 -272 -253 0
w 274 273 254 0
w 274 273 -254 1
w 274 -273 254 1
w 274 -273 -254 0
w 275 274 255 0
w 275 274 -255 1
w 275 -274 255 0
w 275 -274 -255 0
w 276 275 256 0
w 276 275 -256 0
w 276 -275 256 0
w 276 -275 -256 1
w 277 276 257 0
w 277 276 -257 1
w 277 -276 257 1
w 277 -276 -257 1
w 278 277 258 1
w 278 277 -258 1
w 278 -277 258 0
w 278 -277 -258 1
w 279 278 259 0
w 279 278 -259 1
w 279 -278 259 0
w 279 -278 -259 1
w 280 279 260 1
w 280 279 -260 0
w 280 -279 260 1
w 280 -279 -260 0
w 281 261 0
w 281 -261 1
w 282 281 262 0
w 282 281 -262 0
w 282 -281 262 1
w 282 -281 -262 0
w 283 282 263 0
w 283 282 -263 1
w 283 -282 263 0
w 283 -282 -263 1
w 284 283 264 1
w 284 283 -264 1
w 284 -283 264 1
w 284 -283 -264 0
w 285 284 265 0
w 285 284 -265 0
w 285 -284 265 0
w 285 -284 -265 1
w 286 285 266 0
w 286 285 -266 1
w 286 -285 266 1
w 286 -285 -266 1
w 287 286 267 0
w 287 286 -267 1
w 287 -286 267 1
w 287 -286 -267 1
w 288 287 268 0.242127
w 288 287 -268 0.0748992
w 288 -287 268 0.881225
w 288 -287 -268 0.922873
w 289 288 269 1
w 289 288 -269 1
w 289 -288 269 1
w 289 -288 -269 0
w 290 289 270 1
w 290 289 -270 0
w 290 -289 270 1
w 290 -289 -270 1
w 291 290 271 1
w 291 290 -271 1
w 291 -290 271 0
w 291 -290 -271 0
w 292 291 272 0.394999
w 292 291 -272 0.330463
w 292 -291 272 0.0264986
w 292 -291 -272 0.740543
w 293 292 273 0
w 293 292 -273 1
w 293 -292 273 0
w 293 -292 -273 1
w 294 293 274 1
w 294 293 -274 0
w 294 -293 274 0
w 294 -293 -274 0
w 295 294 275 0
w 295 294 -275 1
w 295 -294 275 1
w 295 -294 -275 1
w 296 295 276 0
w 296 295 -276 0
w 296 -295 276 1
w 296 -295 -276 1
w 297 296 277 1
w 297 296 -277 0
w 297 -296 277 1
w 297 -296 -277 0
w 298 297 278 1
w 298 297 -278 0
w 298 -297 278 0
w 298 -297 -278 0
w 299 298 279 0
w 299 298 -279 0
w 299 -298 279 0
w 299 -298 -279 1
w 300 299 280 0.0990545
w 300 299 -280 0.593074
w 300 -299 280 0.0719444
w 300 -299 -280 0.759635
w 301 281 0
w 301 -281 1
w 302 301 282 1
w 302 301 -282 1
w 302 -301 282 0
w 302 -301 -282 1
w 303 302 283 0
w 303 302 -283 1
w 303 -302 283 1
w 303 -302 -283 0
w 304 303 284 0.580311
w 304 303 -284 0.806892
w 304 -303 284 0.96495
w 304 -303 -284 0.753507
w 305 304 285 1
w 305 304 -285 0
w 305 -304 285 0
w 305 -304 -285 0
w 306 305 286 0.0953634
w 306 305 -286 0.513606
w 306 -305 286 0.61239
w 306 -305 -286 0.194418
w 307 306 287 0
w 307 306 -287 1
w 307 -306 287 1
w 307 -306 -287 0
w 308 307 288 0
w 308 307 -288 1
w 308 -307 288 0
w 308 -307 -288 1
w 309 308 289 0
w 309 308 -289 0
w 309 -308 289 1
w 309 -308 -289 0
w 310 309 290 0.495424
w 310 309 -290 0.189737
w 310 -309 290 0.838009
w 310 -309 -290 0.248932
w 311 310 291 0.882313
w 311 310 -291 0.916178
w 311 -310 291 0.0474496
w 311 -310 -291 0.285938
w 312 311 292 0.801925
w 312 311 -292 0.381302
w 312 -311 292 0.423987
w 312 -311 -292 0.414315
w 313 312 293 1
w 313 312 -293 1
w 313 -312 293 0
w 313 -312 -293 0
w 314 313 294 1
w 314 313 -294 0
w 314 -313 294 1
w 314 -313 -294 1
w 315 314 295 0
w 315 314 -295 0
w 315 -314 295 0
w 315 -314 -295 1
w 316 315 296 0.354415
w 316 315 -296 0.741491
w 316 -315 296 0.183287
w 316 -315 -296 0.192424
w 317 316 297 0.0430172
w 317 316 -297 0.0747369
w 317 -316 297 0.906601
w 317 -316 -297 0.0904668
w 318 317 298 0
w 318 317 -298 0
w 318 -317 298 0
w 318 -317 -298 1
w 319 318 299 0
w 319 318 -299 0
w 319 -318 299 1
w 319 -318 -299 0
w 320 319 300 0
w 320 319 -300 0
w 320 -319 300 0
w 320 -319 -300 1
w 321 301 0
w 321 -301 1
w 322 321 302 1
w 322 321 -302 0
w 322 -321 302 1
w 322 -321 -302 0
w 323 322 303 1
w 323 322 -303 0
w 323 -322 303 1
w 323 -322 -303 1
w 324 323 304 1
w 324 323 -304 0
w 324 -323 304 1
w 324 -323 -304 1
w 325 324 305 1
w 325 324 -305 1
w 325 -324 305 1
w 325 -324 -305 0
w 326 325 306 1
w 326 325 -306 0
w 326 -325 306 0
w 326 -325 -306 0
w 327 326 307 0
w 327 326 -307 1
w 327 -326 307 0
w 327 -326 -307 0
w 328 327 308 1
w 328 327 -308 1
w 328 -327 308 0
w 328 -327 -308 1
w 329 328 309 0
w 329 328 -309 1
w 329 -328 309 1
w 329 -328 -309 0
w 330 329 310 0.699415
w 330 329 -310 0.737669
w 330 -329 310 0.220137
w 330 -329 -310 0.160161
w 331 330 311 1
w 331 330 -311 0
w 331 -330 311 0
w 331 -330 -311 1
w 332 331 312 0
w 332 331 -312 0
w 332 -331 312 1
w 332 -331 -312 0
w 333 332 313 1
w 333 332 -313 1
w 333 -332 313 0
w 333 -332 -313 1
w 334 333 314 1
w 334 333 -314 0
w 334 -333 314 0
w 334 -333 -314 0
w 335 334 315 1
w 335 334 -315 1
w 335 -334 315 0
w 335 -334 -315 0
w 336 335 316 1
w 336 335 -316 1
w 336 -335 316 0
w 336 -335 -316 1
w 337 336 317 1
w 337 336 -317 1
w 337 -336 317 0
w 337 -336 -317 1
w 338 337 318 0.95116
w 338 337 -318 0.971298
w 338 -337 318 0.469076
w 338 -337 -318 0.0805807
w 339 338 319 0.791375
w 339 338 -319 0.216009
w 339 -338 319 0.255162
w 339 -338 -319 0.270346
w 340 339 320 0
w 340 339 -320 0
w 340 -339 320 1
w 340 -339 -320 0
w 341 321 1
w 341 -321 0
w 342 341 322 0
w 342 341 -322 0
w 342 -341 322 0
w 342 -341 -322 1
w 343 342 323 1
w 343 342 -323 1
w 343 -342 323 1
w 343 -342 -323 0
w 344 343 324 0
w 344 343 -324 1
w 344 -343 324 0
w 344 -343 -324 1
w 345 344 325 0.795209
w 345 344 -325 0.237088
w 345 -344 325 0.692434
w 345 -344 -325 0.586583
w 346 345 326 0
w 346 345 -326 0
w 346 -345 326 1
w 346 -345 -326 0
w 347 346 327 0
w 347 346 -327 0
w 347 -346 327 1
w 347 -346 -327 0
w 348 347 328 0.467614
w 348 347 -328 0.312422
w 348 -347 328 0.937638
w 348 -347 -328 0.230616
w 349 348 329 1
w 349 348 -329 0
w 349 -348 329 1
w 349 -348 -329 1
w 350 349 330 0.707134
w 350 349 -330 0.611173
w 350 -349 330 0.116568
w 350 -349 -330 0.863642
w 351 350 331 1
w 351 350 -331 1
w 351 -350 331 0
w 351 -350 -331 1
w 352 351 332 0
w 352 351 -332 1
w 352 -351 332 0
w 352 -351 -332 0
w 353 352 333 1
w 353 352 -333 0
w 353 -352 333 1
w 353 -352 -333 0
w 354 353 334 0.784377
w 354 353 -334 0.353786
w 354 -353 334 0.212491
w 354 -353 -334 0.722015
w 355 354 335 0
w 355 354 -335 1
w 355 -354 335 0
w 355 -354 -335 1
w 356 355 336 0
w 356 355 -336 0
w 356 -355 336 1
w 356 -355 -336 1
w 357 356 337 0.752268
w 357 356 -337 0.814283
w 357 -356 337 0.0688685
w 357 -356 -337 0.890953
w 358 357 338 1
w 358 357 -338 0
w 358 -357 338 0
w 358 -357 -338 0
w 359 358 339 0.388859
w 359 358 -339 0.0230935
w 359 -358 339 0.582769
w 359 -358 -339 0.326087
w 360 359 340 0.482839
w 360 359 -340 0.110464
w 360 -359 340 0.263053
w 360 -359 -340 0.69533
w 361 341 0.847455
w 361 -341 0.590905
w 362 361 342 0.842959
w 362 361 -342 0.988267
w 362 -361 342 0.474773
w 362 -361 -342 0.628898
w 363 362 343 0
w 363 362 -343 1
w 363 -362 343 1
w 363 -362 -343 0
w 364 363 344 0
w 364 363 -344 0
w 364 -363 344 1
w 364 -363 -344 0
w 365 364 345 1
w 365 364 -345 0
w 365 -364 345 0
w 365 -364 -345 1
w 366 365 346 0.896354
w 366 365 -346 0.0412101
w 366 -365 346 0.723705
w 366 -365 -346 0.379193
w 367 366 347 0
w 367 366 -347 1
w 367 -366 347 1
w 367 -366 -347 1
w 368 367 348 1
w 368 367 -348 1
w 368 -367 348 1
w 368 -367 -348 0
w 369 368 349 0
w 369 368 -349 0
w 369 -368 349 0
w 369 -368 -349 1
w 370 369 350 1
w 370 369 -350 1
w 370 -369 350 1
w 370 -369 -350 0
w 371 370 351 0
w 371 370 -351 0
w 371 -370 351 1
w 371 -370 -351 0
w 372 371 352 0.29538
w 372 371 -352 0.587903
w 372 -371 352 0.924089
w 372 -371 -352 0.0190847
w 373 372 353 0.0757633
w 373 372 -353 0.00584195
w 373 -372 353 0.0416193
w 373 -372 -353 0.0599158
w 374 373 354 0.707047
w 374 373 -354 0.823997
w 374 -373 354 0.517225
w 374 -373 -354 0.360742
w 375 374 355 0
w 375 374 -355 1
w 375 -374 355 0
w 375 -374 -355 0
w 376 375 356 0.635205
w 376 375 -356 0.843928
w 376 -375 356 0.85169
w 376 -375 -356 0.611923
w 377 376 357 1
w 377 376 -357 0
w 377 -376 357 0
w 377 -376 -357 1
w 378 377 358 1
w 378 377 -358 1
w 378 -377 358 0
w 378 -377 -358 0
w 379 378 359 0
w 379 378 -359 0
w 379 -378 359 1
w 379 -378 -359 1
w 380 379 360 0.182588
w 380 379 -360 0.985102
w 380 -379 360 0.619821
w 380 -379 -360 0.699814
w 381 361 1
w 381 -361 0
w 382 381 362 0
w 382 381 -362 1
w 382 -381 362 0
w 382 -381 -362 0
w 383 382 363 0
w 383 382 -363 0
w 383 -382 363 1
w 383 -382 -363 0
w 384 383 364 0.00218649
w 384 383 -364 0.566398
w 384 -383 364 0.78281
w 384 -383 -364 0.683622
w 385 384 365 0
w 385 384 -365 1
w 385 -384 365 1
w 385 -384 -365 0
w 386 385 366 1
w 386 385 -366 1
w 386 -385 366 0
w 386 -385 -366 1
w 387 386 367 0.452554
w 387 386 -367 0.11415
w 387 -386 367 0.662046
w 387 -386 -367 0.798399
w 388 387 368 0.185153
w 388 387 -368 0.251444
w 388 -387 368 0.561996
w 388 -387 -368 0.369027
w 389 388 369 1
w 389 388 -369 1
w 389 -388 369 0
w 389 -388 -369 0
w 390 389 370 0
w 390 389 -370 1
w 390 -389 370 1
w 390 -389 -370 1
w 391 390 371 1
w 391 390 -371 0
w 391 -390 371 1
w 391 -390 -371 0
w 392 391 372 0.80284
w 392 391 -372 0.640004
w 392 -391 372 0.698909
w 392 -391 -372 0.270292
w 393 392 373 1
w 393 392 -373 1
w 393 -392 373 0
w 393 -392 -373 1
w 394 393 374 1
w 394 393 -374 0
w 394 -393 374 0
w 394 -393 -374 0
w 395 394 375 0.391738
w 395 394 -375 0.569676
w 395 -394 375 0.274197
w 395 -394 -375 0.230084
w 396 395 376 1
w 396 395 -376 1
w 396 -395 376 0
w 396 -395 -376 0
w 397 396 377 0
w 397 396 -377 0
w 397 -396 377 0
w 397 -396 -377 1
w 398 397 378 0.61217
w 398 397 -378 0.597972
w 398 -397 378 0.6211
w 398 -397 -378 0.311079
w 399 398 379 0.755434
w 399 398 -379 0.97222
w 399 -398 379 0.591109
w 399 -398 -379 0.00391675
w 400 399 380 1
w 400 399 -380 1
w 400 -399 380 1
w 400 -399 -380 0